crystal structure from VMoWS2 with Hexag
   1.00000000000000     
     8.3121263499528943    4.8307043349850014    0.0000000000000000
    -8.2850113998991954    4.7837627769822770    0.0000000000000000
     0.0000000000000000    0.0000000000000000   30.0000000000000000
   V    Mo   W    S 
     3     3     3    18
Direct
  0.0353413828168031  0.0176624919631397 -0.0013951418768816
  1.0353394301680463  0.3509743683702017 -0.0014020702947905
  0.0353239914069761  0.6842934394345369 -0.0013912451932964
  0.3428681270409922  0.0046967490512903 -0.0008033581797352
  0.3428455993775051  0.3380812839198671 -0.0007993331087294
  0.3428565508775922  0.6714030999661423 -0.0008006535579379
  0.6287201323739222 -0.0190011073268663  0.0021138805996895
  0.6287061240220957  0.3143067026864507  0.0021153593659450
  0.6287075317714171  0.6476586839273202  0.0021125526333327
  0.1102254611767247  0.2217337924485572  0.9469946123198044
  0.2217879749196454  0.1108606129911889  0.0524249387754519
  0.1102162319318049  0.5550869253739085  0.9470005312505437
  0.2217947994691602  0.4442102766468261  0.0524357566038862
  0.1102060667461556  0.8883903395172985  0.9470140750187444
  0.2217736357222633  0.7775262345427726  0.0524291562329773
  0.4403180991317476  0.2201201932274007  0.9439863207888147
  0.5507043469477714  0.1086476596798612  0.0573672592404093
  0.4403280935853934  0.5534621266915203  0.9439814889963913
  0.5506975013512905  0.4419847515894735  0.0573617099789913
  0.4403359424806651  0.8867882825919610  0.9439787802343257
  0.5507057454039701  0.7753304964885430  0.0573629906296082
  0.7792863102440873  0.2229426865082240  0.9562881568730930
  0.8902060074363237  0.1117457400021255  0.0430163170688303
  0.7792556017612752  0.5562546968078188  0.9562890606058206
  0.8901942547059536  0.4450442680472247  0.0430170657484961
  0.7792746567514279  0.8896035353679702  0.9562874164400439
  0.8901948538159666  0.7784061229628145  0.0430142720061626
 
  0.00000000E+00  0.00000000E+00  0.00000000E+00
  0.00000000E+00  0.00000000E+00  0.00000000E+00
  0.00000000E+00  0.00000000E+00  0.00000000E+00
  0.00000000E+00  0.00000000E+00  0.00000000E+00
  0.00000000E+00  0.00000000E+00  0.00000000E+00
  0.00000000E+00  0.00000000E+00  0.00000000E+00
  0.00000000E+00  0.00000000E+00  0.00000000E+00
  0.00000000E+00  0.00000000E+00  0.00000000E+00
  0.00000000E+00  0.00000000E+00  0.00000000E+00
  0.00000000E+00  0.00000000E+00  0.00000000E+00
  0.00000000E+00  0.00000000E+00  0.00000000E+00
  0.00000000E+00  0.00000000E+00  0.00000000E+00
  0.00000000E+00  0.00000000E+00  0.00000000E+00
  0.00000000E+00  0.00000000E+00  0.00000000E+00
  0.00000000E+00  0.00000000E+00  0.00000000E+00
  0.00000000E+00  0.00000000E+00  0.00000000E+00
  0.00000000E+00  0.00000000E+00  0.00000000E+00
  0.00000000E+00  0.00000000E+00  0.00000000E+00
  0.00000000E+00  0.00000000E+00  0.00000000E+00
  0.00000000E+00  0.00000000E+00  0.00000000E+00
  0.00000000E+00  0.00000000E+00  0.00000000E+00
  0.00000000E+00  0.00000000E+00  0.00000000E+00
  0.00000000E+00  0.00000000E+00  0.00000000E+00
  0.00000000E+00  0.00000000E+00  0.00000000E+00
  0.00000000E+00  0.00000000E+00  0.00000000E+00
  0.00000000E+00  0.00000000E+00  0.00000000E+00
  0.00000000E+00  0.00000000E+00  0.00000000E+00
